n = 50;
C = 236;
w = [468,235,138,59,388,98,391,249,397,363,449,10,157,198,276,95,144,490,46,10,88,197,74,473,116,68,132,332,188,363,90,130,423,487,204,54,199,444,56,448,401,69,273,23,498,297,437,347,21,209];
p = [2350,1185,700,305,1950,500,1965,1255,1995,1825,2255,60,795,1000,1390,485,730,2460,240,60,450,995,380,2375,590,350,670,1670,950,1825,460,660,2125,2445,1030,280,1005,2230,290,2250,2015,355,1375,125,2500,1495,2195,1745,115,1055];
